language ESSENCE' 1.0

letting n_courses be 141
letting n_periods be 21
letting prerequisite_RelationAsSet_Explicit_1 be
        [1, 1, 2, 2, 2, 2, 2, 2, 2, 3, 5, 5, 6, 6, 6, 6, 6, 7, 8, 8, 9, 9, 10, 10, 10, 11, 11, 11, 12, 12, 14, 16, 17,
         17, 18, 19, 20, 21, 22, 22, 23, 23, 24, 24, 24, 24, 25, 26, 26, 27, 28, 29, 29, 30, 30, 31, 31, 31, 32, 33, 33,
         34, 35, 35, 36, 37, 37, 37, 38, 38, 39, 39, 40, 40, 40, 40, 41, 42, 42, 42, 43, 44, 44, 44, 44, 45, 46, 46, 47,
         47, 47, 47, 49, 49, 49, 50, 50, 50, 50, 50, 51, 51, 54, 55, 55, 56, 58, 58, 59, 60, 60, 61, 64, 65, 67, 67, 68,
         68, 68, 68, 68, 69, 69, 72, 74, 75, 76, 76, 79, 79, 80, 81, 81, 81, 82, 83, 84, 85, 86, 90, 91, 92, 92, 93, 93,
         93, 93, 93, 95, 96, 96, 100, 101, 102, 103, 105, 106, 106, 107, 107, 108, 108, 109, 110, 112;
             int(1..165)]
letting prerequisite_RelationAsSet_Explicit_2 be
        [57, 65, 55, 62, 70, 79, 92, 100, 108, 91, 82, 93, 56, 74, 79, 88, 92, 107, 94, 95, 54, 58, 59, 61, 82, 63, 73,
         77, 62, 65, 64, 87, 97, 98, 55, 72, 110, 71, 84, 113, 79, 104, 59, 85, 89, 101, 79, 59, 111, 64, 91, 67, 75,
         60, 76, 57, 109, 110, 67, 65, 109, 99, 68, 103, 78, 52, 71, 111, 85, 112, 67, 102, 64, 84, 105, 108, 81, 54,
         69, 96, 80, 66, 79, 83, 86, 93, 86, 98, 90, 92, 106, 108, 86, 89, 101, 53, 88, 94, 107, 111, 80, 91, 139, 121,
         122, 134, 118, 138, 135, 117, 126, 140, 125, 124, 123, 127, 123, 129, 130, 133, 137, 126, 138, 132, 125, 140,
         117, 126, 126, 127, 135, 117, 120, 123, 131, 128, 117, 134, 124, 115, 129, 125, 138, 116, 120, 121, 124, 140,
         132, 126, 138, 114, 127, 115, 141, 138, 114, 140, 122, 138, 119, 133, 130, 136, 141;
             int(1..165)]
letting course_load_Function1D be
        [3, 7, 8, 4, 7, 9, 3, 6, 6, 3, 4, 6, 3, 9, 8, 8, 5, 5, 7, 4, 3, 5, 5, 8, 7, 5, 2, 4, 2, 2, 7, 6, 4, 9, 4, 2, 6,
         7, 5, 8, 8, 2, 9, 9, 5, 5, 8, 9, 4, 6, 5, 6, 3, 4, 8, 3, 2, 3, 7, 3, 8, 5, 9, 4, 8, 4, 7, 5, 4, 2, 6, 6, 5, 3,
         2, 3, 8, 2, 4, 3, 8, 7, 2, 8, 5, 3, 2, 3, 7, 6, 5, 7, 3, 3, 5, 8, 4, 3, 9, 4, 2, 9, 5, 6, 9, 8, 3, 9, 6, 2, 9,
         4, 4, 4, 7, 6, 2, 7, 7, 3, 2, 6, 5, 5, 2, 4, 6, 5, 7, 5, 5, 2, 3, 7, 8, 5, 4, 2, 4, 8, 3;
             int(1..141)]
letting load_per_period_ub be 35
letting load_per_period_lb be 7
letting courses_per_period_ub be 9
letting courses_per_period_lb be 5
letting fin1 be 165
letting fin2 be 141
letting fin3 be 9
